\* Problem: Robot *\

Minimize
 obj: + 0 x_1 + 59 x_2 + 76 x_3 + 56 x_4 + 49 x_5 + 39 x_6 + 44 x_7
 + 31 x_8 + x_9 + 27 x_10 + 90 x_11 + 23 x_12 + 67 x_13 + 92 x_14
 + 10 x_15 + 10 x_16 + 7 x_17 + 86 x_18 + 79 x_19 + 97 x_20 + 59 x_21
 + 0 x_22 + 92 x_23 + 70 x_24 + 82 x_25 + 41 x_26 + 2 x_27 + 86 x_28
 + 15 x_29 + 38 x_30 + 16 x_31 + 68 x_32 + 49 x_33 + 93 x_34 + 24 x_35
 + 99 x_36 + 84 x_37 + 20 x_38 + 82 x_39 + 85 x_40 + 76 x_41 + 92 x_42
 + 0 x_43 + 67 x_44 + 17 x_45 + 70 x_46 + 77 x_47 + 24 x_48 + 8 x_49
 + 56 x_50 + 73 x_51 + 88 x_52 + 44 x_53 + 17 x_54 + 58 x_55 + 78 x_56
 + 58 x_57 + 13 x_58 + 17 x_59 + 74 x_60 + 56 x_61 + 70 x_62 + 67 x_63
 + 0 x_64 + 26 x_65 + 18 x_66 + 51 x_67 + 11 x_68 + 39 x_69 + 86 x_70
 + 48 x_71 + 39 x_72 + 10 x_73 + 9 x_74 + 58 x_75 + 27 x_76 + 31 x_77
 + 87 x_78 + 4 x_79 + 40 x_80 + 49 x_81 + 82 x_82 + 17 x_83 + 26 x_84
 + 0 x_85 + 38 x_86 + 18 x_87 + 5 x_88 + 51 x_89 + 35 x_90 + 31 x_91
 + 54 x_92 + 69 x_93 + 25 x_94 + 7 x_95 + 47 x_96 + 96 x_97 + 58 x_98
 + 58 x_99 + 87 x_100 + 39 x_101 + 41 x_102 + 70 x_103 + 18 x_104
 + 38 x_105 + 0 x_106 + 34 x_107 + 51 x_108 + 23 x_109 + 90 x_110
 + 43 x_111 + 71 x_112 + 68 x_113 + 23 x_114 + 11 x_115 + 15 x_116
 + 62 x_117 + 82 x_118 + 20 x_119 + 65 x_120 + 44 x_121 + 2 x_122
 + 77 x_123 + 51 x_124 + 18 x_125 + 34 x_126 + 0 x_127 + 77 x_128
 + 89 x_129 + 48 x_130 + 64 x_131 + 86 x_132 + 59 x_133 + 42 x_134
 + 45 x_135 + 79 x_136 + 78 x_137 + 79 x_138 + 83 x_139 + 54 x_140
 + 31 x_141 + 86 x_142 + 24 x_143 + 11 x_144 + 5 x_145 + 51 x_146
 + 77 x_147 + 0 x_148 + 23 x_149 + 77 x_150 + 81 x_151 + 92 x_152
 + 81 x_153 + 5 x_154 + 35 x_155 + 63 x_156 + 84 x_157 + 73 x_158
 + 92 x_159 + 74 x_160 + x_161 + 15 x_162 + 8 x_163 + 39 x_164
 + 51 x_165 + 23 x_166 + 89 x_167 + 23 x_168 + 0 x_169 + 47 x_170
 + 36 x_171 + 10 x_172 + 26 x_173 + 13 x_174 + 28 x_176 + 2 x_177
 + 57 x_178 + 96 x_179 + 25 x_180 + 27 x_181 + 38 x_182 + 56 x_183
 + 86 x_184 + 35 x_185 + 90 x_186 + 48 x_187 + 77 x_188 + 47 x_189
 + 0 x_190 + 45 x_191 + 55 x_192 + 85 x_193 + 57 x_194 + 40 x_195
 + 36 x_196 + 66 x_197 + 57 x_198 + 18 x_199 + 7 x_200 + 90 x_201
 + 16 x_202 + 73 x_203 + 48 x_204 + 31 x_205 + 43 x_206 + 64 x_207
 + 81 x_208 + 36 x_209 + 45 x_210 + 0 x_211 + 14 x_212 + 88 x_213
 + 22 x_214 + 35 x_215 + 75 x_216 + 27 x_217 + 70 x_218 + 94 x_219
 + 9 x_220 + 23 x_221 + 68 x_222 + 88 x_223 + 39 x_224 + 54 x_225
 + 71 x_226 + 86 x_227 + 92 x_228 + 10 x_229 + 55 x_230 + 14 x_231
 + 0 x_232 + 97 x_233 + 92 x_234 + 5 x_235 + 17 x_236 + 14 x_237
 + 19 x_238 + 39 x_239 + 42 x_240 + 67 x_241 + 49 x_242 + 44 x_243
 + 10 x_244 + 69 x_245 + 68 x_246 + 59 x_247 + 81 x_248 + 26 x_249
 + 85 x_250 + 88 x_251 + 97 x_252 + 0 x_253 + 18 x_254 + 4 x_255
 + 33 x_256 + 27 x_257 + 28 x_258 + 53 x_259 + 41 x_260 + 92 x_261
 + 93 x_262 + 17 x_263 + 9 x_264 + 25 x_265 + 23 x_266 + 42 x_267
 + 5 x_268 + 13 x_269 + 57 x_270 + 22 x_271 + 92 x_272 + 18 x_273
 + 0 x_274 + 40 x_275 + 33 x_276 + 37 x_277 + 85 x_278 + 25 x_279
 + 55 x_280 + 10 x_281 + 24 x_282 + 58 x_283 + 58 x_284 + 7 x_285
 + 11 x_286 + 45 x_287 + 35 x_288 + 40 x_290 + 35 x_291 + 5 x_292
 + 4 x_293 + 40 x_294 + 0 x_295 + 54 x_296 + 53 x_297 + 82 x_298
 + 93 x_299 + 93 x_300 + 10 x_301 + 99 x_302 + 78 x_303 + 27 x_304
 + 47 x_305 + 15 x_306 + 79 x_307 + 63 x_308 + 28 x_309 + 36 x_310
 + 75 x_311 + 17 x_312 + 33 x_313 + 33 x_314 + 54 x_315 + 0 x_316
 + 15 x_317 + 77 x_318 + 92 x_319 + 70 x_320 + 7 x_321 + 84 x_322
 + 58 x_323 + 31 x_324 + 96 x_325 + 62 x_326 + 78 x_327 + 84 x_328
 + 2 x_329 + 66 x_330 + 27 x_331 + 14 x_332 + 27 x_333 + 37 x_334
 + 53 x_335 + 15 x_336 + 0 x_337 + 30 x_338 + 17 x_339 + 57 x_340
 + 86 x_341 + 20 x_342 + 13 x_343 + 87 x_344 + 58 x_345 + 82 x_346
 + 79 x_347 + 73 x_348 + 57 x_349 + 57 x_350 + 70 x_351 + 19 x_352
 + 28 x_353 + 85 x_354 + 82 x_355 + 77 x_356 + 30 x_357 + 0 x_358
 + 50 x_359 + 24 x_360 + 79 x_361 + 82 x_362 + 17 x_363 + 4 x_364
 + 58 x_365 + 20 x_366 + 83 x_367 + 92 x_368 + 96 x_369 + 18 x_370
 + 94 x_371 + 39 x_372 + 53 x_373 + 25 x_374 + 93 x_375 + 92 x_376
 + 17 x_377 + 50 x_378 + 0 x_379 + 11 x_380 + 97 x_381 + 85 x_382
 + 74 x_383 + 40 x_384 + 87 x_385 + 65 x_386 + 54 x_387 + 74 x_388
 + 25 x_389 + 7 x_390 + 9 x_391 + 42 x_392 + 41 x_393 + 55 x_394
 + 93 x_395 + 70 x_396 + 57 x_397 + 24 x_398 + 11 x_399 + 0 x_400

Subject To
 r_1: + x_20 + x_19 + x_18 + x_17 + x_16 + x_15 + x_14 + x_13 + x_12
 + x_11 + x_10 + x_9 + x_8 + x_7 + x_6 + x_5 + x_4 + x_3 + x_2 = 1
 r_2: + x_40 + x_39 + x_38 + x_37 + x_36 + x_35 + x_34 + x_33 + x_32
 + x_31 + x_30 + x_29 + x_28 + x_27 + x_26 + x_25 + x_24 + x_23 + x_21
 = 1
 r_3: + x_60 + x_59 + x_58 + x_57 + x_56 + x_55 + x_54 + x_53 + x_52
 + x_51 + x_50 + x_49 + x_48 + x_47 + x_46 + x_45 + x_44 + x_42 + x_41
 = 1
 r_4: + x_80 + x_79 + x_78 + x_77 + x_76 + x_75 + x_74 + x_73 + x_72
 + x_71 + x_70 + x_69 + x_68 + x_67 + x_66 + x_65 + x_63 + x_62 + x_61
 = 1
 r_5: + x_100 + x_99 + x_98 + x_97 + x_96 + x_95 + x_94 + x_93 + x_92
 + x_91 + x_90 + x_89 + x_88 + x_87 + x_86 + x_84 + x_83 + x_82 + x_81
 = 1
 r_6: + x_120 + x_119 + x_118 + x_117 + x_116 + x_115 + x_114 + x_113
 + x_112 + x_111 + x_110 + x_109 + x_108 + x_107 + x_105 + x_104 + x_103
 + x_102 + x_101 = 1
 r_7: + x_140 + x_139 + x_138 + x_137 + x_136 + x_135 + x_134 + x_133
 + x_132 + x_131 + x_130 + x_129 + x_128 + x_126 + x_125 + x_124 + x_123
 + x_122 + x_121 = 1
 r_8: + x_160 + x_159 + x_158 + x_157 + x_156 + x_155 + x_154 + x_153
 + x_152 + x_151 + x_150 + x_149 + x_147 + x_146 + x_145 + x_144 + x_143
 + x_142 + x_141 = 1
 r_9: + x_180 + x_179 + x_178 + x_177 + x_176 + x_175 + x_174 + x_173
 + x_172 + x_171 + x_170 + x_168 + x_167 + x_166 + x_165 + x_164 + x_163
 + x_162 + x_161 = 1
 r_10: + x_200 + x_199 + x_198 + x_197 + x_196 + x_195 + x_194 + x_193
 + x_192 + x_191 + x_189 + x_188 + x_187 + x_186 + x_185 + x_184 + x_183
 + x_182 + x_181 = 1
 r_11: + x_220 + x_219 + x_218 + x_217 + x_216 + x_215 + x_214 + x_213
 + x_212 + x_210 + x_209 + x_208 + x_207 + x_206 + x_205 + x_204 + x_203
 + x_202 + x_201 = 1
 r_12: + x_240 + x_239 + x_238 + x_237 + x_236 + x_235 + x_234 + x_233
 + x_231 + x_230 + x_229 + x_228 + x_227 + x_226 + x_225 + x_224 + x_223
 + x_222 + x_221 = 1
 r_13: + x_260 + x_259 + x_258 + x_257 + x_256 + x_255 + x_254 + x_252
 + x_251 + x_250 + x_249 + x_248 + x_247 + x_246 + x_245 + x_244 + x_243
 + x_242 + x_241 = 1
 r_14: + x_280 + x_279 + x_278 + x_277 + x_276 + x_275 + x_273 + x_272
 + x_271 + x_270 + x_269 + x_268 + x_267 + x_266 + x_265 + x_264 + x_263
 + x_262 + x_261 = 1
 r_15: + x_300 + x_299 + x_298 + x_297 + x_296 + x_294 + x_293 + x_292
 + x_291 + x_290 + x_289 + x_288 + x_287 + x_286 + x_285 + x_284 + x_283
 + x_282 + x_281 = 1
 r_16: + x_320 + x_319 + x_318 + x_317 + x_315 + x_314 + x_313 + x_312
 + x_311 + x_310 + x_309 + x_308 + x_307 + x_306 + x_305 + x_304 + x_303
 + x_302 + x_301 = 1
 r_17: + x_340 + x_339 + x_338 + x_336 + x_335 + x_334 + x_333 + x_332
 + x_331 + x_330 + x_329 + x_328 + x_327 + x_326 + x_325 + x_324 + x_323
 + x_322 + x_321 = 1
 r_18: + x_360 + x_359 + x_357 + x_356 + x_355 + x_354 + x_353 + x_352
 + x_351 + x_350 + x_349 + x_348 + x_347 + x_346 + x_345 + x_344 + x_343
 + x_342 + x_341 = 1
 r_19: + x_380 + x_378 + x_377 + x_376 + x_375 + x_374 + x_373 + x_372
 + x_371 + x_370 + x_369 + x_368 + x_367 + x_366 + x_365 + x_364 + x_363
 + x_362 + x_361 = 1
 r_20: + x_399 + x_398 + x_397 + x_396 + x_395 + x_394 + x_393 + x_392
 + x_391 + x_390 + x_389 + x_388 + x_387 + x_386 + x_385 + x_384 + x_383
 + x_382 + x_381 = 1
 r_21: + x_381 + x_361 + x_341 + x_321 + x_301 + x_281 + x_261 + x_241
 + x_221 + x_201 + x_181 + x_161 + x_141 + x_121 + x_101 + x_81 + x_61
 + x_41 + x_21 = 1
 r_22: + x_382 + x_362 + x_342 + x_322 + x_302 + x_282 + x_262 + x_242
 + x_222 + x_202 + x_182 + x_162 + x_142 + x_122 + x_102 + x_82 + x_62
 + x_42 + x_2 = 1
 r_23: + x_383 + x_363 + x_343 + x_323 + x_303 + x_283 + x_263 + x_243
 + x_223 + x_203 + x_183 + x_163 + x_143 + x_123 + x_103 + x_83 + x_63
 + x_23 + x_3 = 1
 r_24: + x_384 + x_364 + x_344 + x_324 + x_304 + x_284 + x_264 + x_244
 + x_224 + x_204 + x_184 + x_164 + x_144 + x_124 + x_104 + x_84 + x_44
 + x_24 + x_4 = 1
 r_25: + x_385 + x_365 + x_345 + x_325 + x_305 + x_285 + x_265 + x_245
 + x_225 + x_205 + x_185 + x_165 + x_145 + x_125 + x_105 + x_65 + x_45
 + x_25 + x_5 = 1
 r_26: + x_386 + x_366 + x_346 + x_326 + x_306 + x_286 + x_266 + x_246
 + x_226 + x_206 + x_186 + x_166 + x_146 + x_126 + x_86 + x_66 + x_46
 + x_26 + x_6 = 1
 r_27: + x_387 + x_367 + x_347 + x_327 + x_307 + x_287 + x_267 + x_247
 + x_227 + x_207 + x_187 + x_167 + x_147 + x_107 + x_87 + x_67 + x_47
 + x_27 + x_7 = 1
 r_28: + x_388 + x_368 + x_348 + x_328 + x_308 + x_288 + x_268 + x_248
 + x_228 + x_208 + x_188 + x_168 + x_128 + x_108 + x_88 + x_68 + x_48
 + x_28 + x_8 = 1
 r_29: + x_389 + x_369 + x_349 + x_329 + x_309 + x_289 + x_269 + x_249
 + x_229 + x_209 + x_189 + x_149 + x_129 + x_109 + x_89 + x_69 + x_49
 + x_29 + x_9 = 1
 r_30: + x_390 + x_370 + x_350 + x_330 + x_310 + x_290 + x_270 + x_250
 + x_230 + x_210 + x_170 + x_150 + x_130 + x_110 + x_90 + x_70 + x_50
 + x_30 + x_10 = 1
 r_31: + x_391 + x_371 + x_351 + x_331 + x_311 + x_291 + x_271 + x_251
 + x_231 + x_191 + x_171 + x_151 + x_131 + x_111 + x_91 + x_71 + x_51
 + x_31 + x_11 = 1
 r_32: + x_392 + x_372 + x_352 + x_332 + x_312 + x_292 + x_272 + x_252
 + x_212 + x_192 + x_172 + x_152 + x_132 + x_112 + x_92 + x_72 + x_52
 + x_32 + x_12 = 1
 r_33: + x_393 + x_373 + x_353 + x_333 + x_313 + x_293 + x_273 + x_233
 + x_213 + x_193 + x_173 + x_153 + x_133 + x_113 + x_93 + x_73 + x_53
 + x_33 + x_13 = 1
 r_34: + x_394 + x_374 + x_354 + x_334 + x_314 + x_294 + x_254 + x_234
 + x_214 + x_194 + x_174 + x_154 + x_134 + x_114 + x_94 + x_74 + x_54
 + x_34 + x_14 = 1
 r_35: + x_395 + x_375 + x_355 + x_335 + x_315 + x_275 + x_255 + x_235
 + x_215 + x_195 + x_175 + x_155 + x_135 + x_115 + x_95 + x_75 + x_55
 + x_35 + x_15 = 1
 r_36: + x_396 + x_376 + x_356 + x_336 + x_296 + x_276 + x_256 + x_236
 + x_216 + x_196 + x_176 + x_156 + x_136 + x_116 + x_96 + x_76 + x_56
 + x_36 + x_16 = 1
 r_37: + x_397 + x_377 + x_357 + x_317 + x_297 + x_277 + x_257 + x_237
 + x_217 + x_197 + x_177 + x_157 + x_137 + x_117 + x_97 + x_77 + x_57
 + x_37 + x_17 = 1
 r_38: + x_398 + x_378 + x_338 + x_318 + x_298 + x_278 + x_258 + x_238
 + x_218 + x_198 + x_178 + x_158 + x_138 + x_118 + x_98 + x_78 + x_58
 + x_38 + x_18 = 1
 r_39: + x_399 + x_359 + x_339 + x_319 + x_299 + x_279 + x_259 + x_239
 + x_219 + x_199 + x_179 + x_159 + x_139 + x_119 + x_99 + x_79 + x_59
 + x_39 + x_19 = 1
 r_40: + x_380 + x_360 + x_340 + x_320 + x_300 + x_280 + x_260 + x_240
 + x_220 + x_200 + x_180 + x_160 + x_140 + x_120 + x_100 + x_80 + x_60
 + x_40 + x_20 = 1
 r_41: + x_122 + x_27 = 1
 r_42: + x_343 + x_58 = 1
 r_43: + x_364 + x_79 = 1
 r_44: + x_306 + x_116 = 1
 r_45: + x_390 + x_200 = 1
 r_46: + x_268 + x_154 = 1
 r_47: + x_122 + x_87 + x_145 + x_268 + x_54 + x_343 + x_38 = 6
 r_48: + x_364 + x_199 + x_390 + x_220 + x_231 + x_292 + x_255 + x_73
 = 7

Bounds
 0 <= x_1 <= 1
 0 <= x_2 <= 1
 0 <= x_3 <= 1
 0 <= x_4 <= 1
 0 <= x_5 <= 1
 0 <= x_6 <= 1
 0 <= x_7 <= 1
 0 <= x_8 <= 1
 0 <= x_9 <= 1
 0 <= x_10 <= 1
 0 <= x_11 <= 1
 0 <= x_12 <= 1
 0 <= x_13 <= 1
 0 <= x_14 <= 1
 0 <= x_15 <= 1
 0 <= x_16 <= 1
 0 <= x_17 <= 1
 0 <= x_18 <= 1
 0 <= x_19 <= 1
 0 <= x_20 <= 1
 0 <= x_21 <= 1
 0 <= x_22 <= 1
 0 <= x_23 <= 1
 0 <= x_24 <= 1
 0 <= x_25 <= 1
 0 <= x_26 <= 1
 0 <= x_27 <= 1
 0 <= x_28 <= 1
 0 <= x_29 <= 1
 0 <= x_30 <= 1
 0 <= x_31 <= 1
 0 <= x_32 <= 1
 0 <= x_33 <= 1
 0 <= x_34 <= 1
 0 <= x_35 <= 1
 0 <= x_36 <= 1
 0 <= x_37 <= 1
 0 <= x_38 <= 1
 0 <= x_39 <= 1
 0 <= x_40 <= 1
 0 <= x_41 <= 1
 0 <= x_42 <= 1
 0 <= x_43 <= 1
 0 <= x_44 <= 1
 0 <= x_45 <= 1
 0 <= x_46 <= 1
 0 <= x_47 <= 1
 0 <= x_48 <= 1
 0 <= x_49 <= 1
 0 <= x_50 <= 1
 0 <= x_51 <= 1
 0 <= x_52 <= 1
 0 <= x_53 <= 1
 0 <= x_54 <= 1
 0 <= x_55 <= 1
 0 <= x_56 <= 1
 0 <= x_57 <= 1
 0 <= x_58 <= 1
 0 <= x_59 <= 1
 0 <= x_60 <= 1
 0 <= x_61 <= 1
 0 <= x_62 <= 1
 0 <= x_63 <= 1
 0 <= x_64 <= 1
 0 <= x_65 <= 1
 0 <= x_66 <= 1
 0 <= x_67 <= 1
 0 <= x_68 <= 1
 0 <= x_69 <= 1
 0 <= x_70 <= 1
 0 <= x_71 <= 1
 0 <= x_72 <= 1
 0 <= x_73 <= 1
 0 <= x_74 <= 1
 0 <= x_75 <= 1
 0 <= x_76 <= 1
 0 <= x_77 <= 1
 0 <= x_78 <= 1
 0 <= x_79 <= 1
 0 <= x_80 <= 1
 0 <= x_81 <= 1
 0 <= x_82 <= 1
 0 <= x_83 <= 1
 0 <= x_84 <= 1
 0 <= x_85 <= 1
 0 <= x_86 <= 1
 0 <= x_87 <= 1
 0 <= x_88 <= 1
 0 <= x_89 <= 1
 0 <= x_90 <= 1
 0 <= x_91 <= 1
 0 <= x_92 <= 1
 0 <= x_93 <= 1
 0 <= x_94 <= 1
 0 <= x_95 <= 1
 0 <= x_96 <= 1
 0 <= x_97 <= 1
 0 <= x_98 <= 1
 0 <= x_99 <= 1
 0 <= x_100 <= 1
 0 <= x_101 <= 1
 0 <= x_102 <= 1
 0 <= x_103 <= 1
 0 <= x_104 <= 1
 0 <= x_105 <= 1
 0 <= x_106 <= 1
 0 <= x_107 <= 1
 0 <= x_108 <= 1
 0 <= x_109 <= 1
 0 <= x_110 <= 1
 0 <= x_111 <= 1
 0 <= x_112 <= 1
 0 <= x_113 <= 1
 0 <= x_114 <= 1
 0 <= x_115 <= 1
 0 <= x_116 <= 1
 0 <= x_117 <= 1
 0 <= x_118 <= 1
 0 <= x_119 <= 1
 0 <= x_120 <= 1
 0 <= x_121 <= 1
 0 <= x_122 <= 1
 0 <= x_123 <= 1
 0 <= x_124 <= 1
 0 <= x_125 <= 1
 0 <= x_126 <= 1
 0 <= x_127 <= 1
 0 <= x_128 <= 1
 0 <= x_129 <= 1
 0 <= x_130 <= 1
 0 <= x_131 <= 1
 0 <= x_132 <= 1
 0 <= x_133 <= 1
 0 <= x_134 <= 1
 0 <= x_135 <= 1
 0 <= x_136 <= 1
 0 <= x_137 <= 1
 0 <= x_138 <= 1
 0 <= x_139 <= 1
 0 <= x_140 <= 1
 0 <= x_141 <= 1
 0 <= x_142 <= 1
 0 <= x_143 <= 1
 0 <= x_144 <= 1
 0 <= x_145 <= 1
 0 <= x_146 <= 1
 0 <= x_147 <= 1
 0 <= x_148 <= 1
 0 <= x_149 <= 1
 0 <= x_150 <= 1
 0 <= x_151 <= 1
 0 <= x_152 <= 1
 0 <= x_153 <= 1
 0 <= x_154 <= 1
 0 <= x_155 <= 1
 0 <= x_156 <= 1
 0 <= x_157 <= 1
 0 <= x_158 <= 1
 0 <= x_159 <= 1
 0 <= x_160 <= 1
 0 <= x_161 <= 1
 0 <= x_162 <= 1
 0 <= x_163 <= 1
 0 <= x_164 <= 1
 0 <= x_165 <= 1
 0 <= x_166 <= 1
 0 <= x_167 <= 1
 0 <= x_168 <= 1
 0 <= x_169 <= 1
 0 <= x_170 <= 1
 0 <= x_171 <= 1
 0 <= x_172 <= 1
 0 <= x_173 <= 1
 0 <= x_174 <= 1
 0 <= x_175 <= 1
 0 <= x_176 <= 1
 0 <= x_177 <= 1
 0 <= x_178 <= 1
 0 <= x_179 <= 1
 0 <= x_180 <= 1
 0 <= x_181 <= 1
 0 <= x_182 <= 1
 0 <= x_183 <= 1
 0 <= x_184 <= 1
 0 <= x_185 <= 1
 0 <= x_186 <= 1
 0 <= x_187 <= 1
 0 <= x_188 <= 1
 0 <= x_189 <= 1
 0 <= x_190 <= 1
 0 <= x_191 <= 1
 0 <= x_192 <= 1
 0 <= x_193 <= 1
 0 <= x_194 <= 1
 0 <= x_195 <= 1
 0 <= x_196 <= 1
 0 <= x_197 <= 1
 0 <= x_198 <= 1
 0 <= x_199 <= 1
 0 <= x_200 <= 1
 0 <= x_201 <= 1
 0 <= x_202 <= 1
 0 <= x_203 <= 1
 0 <= x_204 <= 1
 0 <= x_205 <= 1
 0 <= x_206 <= 1
 0 <= x_207 <= 1
 0 <= x_208 <= 1
 0 <= x_209 <= 1
 0 <= x_210 <= 1
 0 <= x_211 <= 1
 0 <= x_212 <= 1
 0 <= x_213 <= 1
 0 <= x_214 <= 1
 0 <= x_215 <= 1
 0 <= x_216 <= 1
 0 <= x_217 <= 1
 0 <= x_218 <= 1
 0 <= x_219 <= 1
 0 <= x_220 <= 1
 0 <= x_221 <= 1
 0 <= x_222 <= 1
 0 <= x_223 <= 1
 0 <= x_224 <= 1
 0 <= x_225 <= 1
 0 <= x_226 <= 1
 0 <= x_227 <= 1
 0 <= x_228 <= 1
 0 <= x_229 <= 1
 0 <= x_230 <= 1
 0 <= x_231 <= 1
 0 <= x_232 <= 1
 0 <= x_233 <= 1
 0 <= x_234 <= 1
 0 <= x_235 <= 1
 0 <= x_236 <= 1
 0 <= x_237 <= 1
 0 <= x_238 <= 1
 0 <= x_239 <= 1
 0 <= x_240 <= 1
 0 <= x_241 <= 1
 0 <= x_242 <= 1
 0 <= x_243 <= 1
 0 <= x_244 <= 1
 0 <= x_245 <= 1
 0 <= x_246 <= 1
 0 <= x_247 <= 1
 0 <= x_248 <= 1
 0 <= x_249 <= 1
 0 <= x_250 <= 1
 0 <= x_251 <= 1
 0 <= x_252 <= 1
 0 <= x_253 <= 1
 0 <= x_254 <= 1
 0 <= x_255 <= 1
 0 <= x_256 <= 1
 0 <= x_257 <= 1
 0 <= x_258 <= 1
 0 <= x_259 <= 1
 0 <= x_260 <= 1
 0 <= x_261 <= 1
 0 <= x_262 <= 1
 0 <= x_263 <= 1
 0 <= x_264 <= 1
 0 <= x_265 <= 1
 0 <= x_266 <= 1
 0 <= x_267 <= 1
 0 <= x_268 <= 1
 0 <= x_269 <= 1
 0 <= x_270 <= 1
 0 <= x_271 <= 1
 0 <= x_272 <= 1
 0 <= x_273 <= 1
 0 <= x_274 <= 1
 0 <= x_275 <= 1
 0 <= x_276 <= 1
 0 <= x_277 <= 1
 0 <= x_278 <= 1
 0 <= x_279 <= 1
 0 <= x_280 <= 1
 0 <= x_281 <= 1
 0 <= x_282 <= 1
 0 <= x_283 <= 1
 0 <= x_284 <= 1
 0 <= x_285 <= 1
 0 <= x_286 <= 1
 0 <= x_287 <= 1
 0 <= x_288 <= 1
 0 <= x_289 <= 1
 0 <= x_290 <= 1
 0 <= x_291 <= 1
 0 <= x_292 <= 1
 0 <= x_293 <= 1
 0 <= x_294 <= 1
 0 <= x_295 <= 1
 0 <= x_296 <= 1
 0 <= x_297 <= 1
 0 <= x_298 <= 1
 0 <= x_299 <= 1
 0 <= x_300 <= 1
 0 <= x_301 <= 1
 0 <= x_302 <= 1
 0 <= x_303 <= 1
 0 <= x_304 <= 1
 0 <= x_305 <= 1
 0 <= x_306 <= 1
 0 <= x_307 <= 1
 0 <= x_308 <= 1
 0 <= x_309 <= 1
 0 <= x_310 <= 1
 0 <= x_311 <= 1
 0 <= x_312 <= 1
 0 <= x_313 <= 1
 0 <= x_314 <= 1
 0 <= x_315 <= 1
 0 <= x_316 <= 1
 0 <= x_317 <= 1
 0 <= x_318 <= 1
 0 <= x_319 <= 1
 0 <= x_320 <= 1
 0 <= x_321 <= 1
 0 <= x_322 <= 1
 0 <= x_323 <= 1
 0 <= x_324 <= 1
 0 <= x_325 <= 1
 0 <= x_326 <= 1
 0 <= x_327 <= 1
 0 <= x_328 <= 1
 0 <= x_329 <= 1
 0 <= x_330 <= 1
 0 <= x_331 <= 1
 0 <= x_332 <= 1
 0 <= x_333 <= 1
 0 <= x_334 <= 1
 0 <= x_335 <= 1
 0 <= x_336 <= 1
 0 <= x_337 <= 1
 0 <= x_338 <= 1
 0 <= x_339 <= 1
 0 <= x_340 <= 1
 0 <= x_341 <= 1
 0 <= x_342 <= 1
 0 <= x_343 <= 1
 0 <= x_344 <= 1
 0 <= x_345 <= 1
 0 <= x_346 <= 1
 0 <= x_347 <= 1
 0 <= x_348 <= 1
 0 <= x_349 <= 1
 0 <= x_350 <= 1
 0 <= x_351 <= 1
 0 <= x_352 <= 1
 0 <= x_353 <= 1
 0 <= x_354 <= 1
 0 <= x_355 <= 1
 0 <= x_356 <= 1
 0 <= x_357 <= 1
 0 <= x_358 <= 1
 0 <= x_359 <= 1
 0 <= x_360 <= 1
 0 <= x_361 <= 1
 0 <= x_362 <= 1
 0 <= x_363 <= 1
 0 <= x_364 <= 1
 0 <= x_365 <= 1
 0 <= x_366 <= 1
 0 <= x_367 <= 1
 0 <= x_368 <= 1
 0 <= x_369 <= 1
 0 <= x_370 <= 1
 0 <= x_371 <= 1
 0 <= x_372 <= 1
 0 <= x_373 <= 1
 0 <= x_374 <= 1
 0 <= x_375 <= 1
 0 <= x_376 <= 1
 0 <= x_377 <= 1
 0 <= x_378 <= 1
 0 <= x_379 <= 1
 0 <= x_380 <= 1
 0 <= x_381 <= 1
 0 <= x_382 <= 1
 0 <= x_383 <= 1
 0 <= x_384 <= 1
 0 <= x_385 <= 1
 0 <= x_386 <= 1
 0 <= x_387 <= 1
 0 <= x_388 <= 1
 0 <= x_389 <= 1
 0 <= x_390 <= 1
 0 <= x_391 <= 1
 0 <= x_392 <= 1
 0 <= x_393 <= 1
 0 <= x_394 <= 1
 0 <= x_395 <= 1
 0 <= x_396 <= 1
 0 <= x_397 <= 1
 0 <= x_398 <= 1
 0 <= x_399 <= 1
 0 <= x_400 <= 1

Generals
 x_1
 x_2
 x_3
 x_4
 x_5
 x_6
 x_7
 x_8
 x_9
 x_10
 x_11
 x_12
 x_13
 x_14
 x_15
 x_16
 x_17
 x_18
 x_19
 x_20
 x_21
 x_22
 x_23
 x_24
 x_25
 x_26
 x_27
 x_28
 x_29
 x_30
 x_31
 x_32
 x_33
 x_34
 x_35
 x_36
 x_37
 x_38
 x_39
 x_40
 x_41
 x_42
 x_43
 x_44
 x_45
 x_46
 x_47
 x_48
 x_49
 x_50
 x_51
 x_52
 x_53
 x_54
 x_55
 x_56
 x_57
 x_58
 x_59
 x_60
 x_61
 x_62
 x_63
 x_64
 x_65
 x_66
 x_67
 x_68
 x_69
 x_70
 x_71
 x_72
 x_73
 x_74
 x_75
 x_76
 x_77
 x_78
 x_79
 x_80
 x_81
 x_82
 x_83
 x_84
 x_85
 x_86
 x_87
 x_88
 x_89
 x_90
 x_91
 x_92
 x_93
 x_94
 x_95
 x_96
 x_97
 x_98
 x_99
 x_100
 x_101
 x_102
 x_103
 x_104
 x_105
 x_106
 x_107
 x_108
 x_109
 x_110
 x_111
 x_112
 x_113
 x_114
 x_115
 x_116
 x_117
 x_118
 x_119
 x_120
 x_121
 x_122
 x_123
 x_124
 x_125
 x_126
 x_127
 x_128
 x_129
 x_130
 x_131
 x_132
 x_133
 x_134
 x_135
 x_136
 x_137
 x_138
 x_139
 x_140
 x_141
 x_142
 x_143
 x_144
 x_145
 x_146
 x_147
 x_148
 x_149
 x_150
 x_151
 x_152
 x_153
 x_154
 x_155
 x_156
 x_157
 x_158
 x_159
 x_160
 x_161
 x_162
 x_163
 x_164
 x_165
 x_166
 x_167
 x_168
 x_169
 x_170
 x_171
 x_172
 x_173
 x_174
 x_175
 x_176
 x_177
 x_178
 x_179
 x_180
 x_181
 x_182
 x_183
 x_184
 x_185
 x_186
 x_187
 x_188
 x_189
 x_190
 x_191
 x_192
 x_193
 x_194
 x_195
 x_196
 x_197
 x_198
 x_199
 x_200
 x_201
 x_202
 x_203
 x_204
 x_205
 x_206
 x_207
 x_208
 x_209
 x_210
 x_211
 x_212
 x_213
 x_214
 x_215
 x_216
 x_217
 x_218
 x_219
 x_220
 x_221
 x_222
 x_223
 x_224
 x_225
 x_226
 x_227
 x_228
 x_229
 x_230
 x_231
 x_232
 x_233
 x_234
 x_235
 x_236
 x_237
 x_238
 x_239
 x_240
 x_241
 x_242
 x_243
 x_244
 x_245
 x_246
 x_247
 x_248
 x_249
 x_250
 x_251
 x_252
 x_253
 x_254
 x_255
 x_256
 x_257
 x_258
 x_259
 x_260
 x_261
 x_262
 x_263
 x_264
 x_265
 x_266
 x_267
 x_268
 x_269
 x_270
 x_271
 x_272
 x_273
 x_274
 x_275
 x_276
 x_277
 x_278
 x_279
 x_280
 x_281
 x_282
 x_283
 x_284
 x_285
 x_286
 x_287
 x_288
 x_289
 x_290
 x_291
 x_292
 x_293
 x_294
 x_295
 x_296
 x_297
 x_298
 x_299
 x_300
 x_301
 x_302
 x_303
 x_304
 x_305
 x_306
 x_307
 x_308
 x_309
 x_310
 x_311
 x_312
 x_313
 x_314
 x_315
 x_316
 x_317
 x_318
 x_319
 x_320
 x_321
 x_322
 x_323
 x_324
 x_325
 x_326
 x_327
 x_328
 x_329
 x_330
 x_331
 x_332
 x_333
 x_334
 x_335
 x_336
 x_337
 x_338
 x_339
 x_340
 x_341
 x_342
 x_343
 x_344
 x_345
 x_346
 x_347
 x_348
 x_349
 x_350
 x_351
 x_352
 x_353
 x_354
 x_355
 x_356
 x_357
 x_358
 x_359
 x_360
 x_361
 x_362
 x_363
 x_364
 x_365
 x_366
 x_367
 x_368
 x_369
 x_370
 x_371
 x_372
 x_373
 x_374
 x_375
 x_376
 x_377
 x_378
 x_379
 x_380
 x_381
 x_382
 x_383
 x_384
 x_385
 x_386
 x_387
 x_388
 x_389
 x_390
 x_391
 x_392
 x_393
 x_394
 x_395
 x_396
 x_397
 x_398
 x_399
 x_400

End
